c *********************************
c * Circuit generated by BenCGen
c *
c * CarrySkipAdder_47_47_47_InOut_G4T
c *
c * Ports with 1 gate(s): 14
c * Ports with 2 gate(s): 260
c * Ports with 3 gate(s): 1
c * Ports with 4 gate(s): 11
c * Total gates: 286
c *********************************
p cnf 380 961
1 144 0
-1 -144 0
1 -143 0
144 -143 0
-1 -144 143 0
1 48 -147 0
-1 48 147 0
1 -48 147 0
-1 -48 -147 0
147 143 -95 0
-147 143 95 0
147 -143 95 0
-147 -143 -95 0
143 -148 0
147 -148 0
-143 -147 148 0
48 -149 0
1 -149 0
-48 -1 149 0
-148 146 0
-149 146 0
148 149 -146 0
2 49 -151 0
-2 49 151 0
2 -49 151 0
-2 -49 -151 0
151 146 -96 0
-151 146 96 0
151 -146 96 0
-151 -146 -96 0
146 -152 0
151 -152 0
-146 -151 152 0
49 -153 0
2 -153 0
-49 -2 153 0
-152 150 0
-153 150 0
152 153 -150 0
3 50 -155 0
-3 50 155 0
3 -50 155 0
-3 -50 -155 0
155 150 -97 0
-155 150 97 0
155 -150 97 0
-155 -150 -97 0
150 -156 0
155 -156 0
-150 -155 156 0
50 -157 0
3 -157 0
-50 -3 157 0
-156 154 0
-157 154 0
156 157 -154 0
4 51 -158 0
-4 51 158 0
4 -51 158 0
-4 -51 -158 0
158 154 -98 0
-158 154 98 0
158 -154 98 0
-158 -154 -98 0
154 -159 0
158 -159 0
-154 -158 159 0
51 -160 0
4 -160 0
-51 -4 160 0
-159 145 0
-160 145 0
159 160 -145 0
147 -161 0
151 -161 0
155 -161 0
158 -161 0
-147 -151 -155 -158 161 0
160 -162 0
-160 162 0
143 -163 0
161 -163 0
-143 -161 163 0
-163 164 0
-145 164 0
163 145 -164 0
5 52 -167 0
-5 52 167 0
5 -52 167 0
-5 -52 -167 0
167 164 -99 0
-167 164 99 0
167 -164 99 0
-167 -164 -99 0
164 -168 0
167 -168 0
-164 -167 168 0
52 -169 0
5 -169 0
-52 -5 169 0
-168 166 0
-169 166 0
168 169 -166 0
6 53 -171 0
-6 53 171 0
6 -53 171 0
-6 -53 -171 0
171 166 -100 0
-171 166 100 0
171 -166 100 0
-171 -166 -100 0
166 -172 0
171 -172 0
-166 -171 172 0
53 -173 0
6 -173 0
-53 -6 173 0
-172 170 0
-173 170 0
172 173 -170 0
7 54 -175 0
-7 54 175 0
7 -54 175 0
-7 -54 -175 0
175 170 -101 0
-175 170 101 0
175 -170 101 0
-175 -170 -101 0
170 -176 0
175 -176 0
-170 -175 176 0
54 -177 0
7 -177 0
-54 -7 177 0
-176 174 0
-177 174 0
176 177 -174 0
8 55 -178 0
-8 55 178 0
8 -55 178 0
-8 -55 -178 0
178 174 -102 0
-178 174 102 0
178 -174 102 0
-178 -174 -102 0
174 -179 0
178 -179 0
-174 -178 179 0
55 -180 0
8 -180 0
-55 -8 180 0
-179 165 0
-180 165 0
179 180 -165 0
167 -181 0
171 -181 0
175 -181 0
178 -181 0
-167 -171 -175 -178 181 0
180 -182 0
-180 182 0
164 -183 0
181 -183 0
-164 -181 183 0
-183 184 0
-165 184 0
183 165 -184 0
9 56 -187 0
-9 56 187 0
9 -56 187 0
-9 -56 -187 0
187 184 -103 0
-187 184 103 0
187 -184 103 0
-187 -184 -103 0
184 -188 0
187 -188 0
-184 -187 188 0
56 -189 0
9 -189 0
-56 -9 189 0
-188 186 0
-189 186 0
188 189 -186 0
10 57 -191 0
-10 57 191 0
10 -57 191 0
-10 -57 -191 0
191 186 -104 0
-191 186 104 0
191 -186 104 0
-191 -186 -104 0
186 -192 0
191 -192 0
-186 -191 192 0
57 -193 0
10 -193 0
-57 -10 193 0
-192 190 0
-193 190 0
192 193 -190 0
11 58 -195 0
-11 58 195 0
11 -58 195 0
-11 -58 -195 0
195 190 -105 0
-195 190 105 0
195 -190 105 0
-195 -190 -105 0
190 -196 0
195 -196 0
-190 -195 196 0
58 -197 0
11 -197 0
-58 -11 197 0
-196 194 0
-197 194 0
196 197 -194 0
12 59 -198 0
-12 59 198 0
12 -59 198 0
-12 -59 -198 0
198 194 -106 0
-198 194 106 0
198 -194 106 0
-198 -194 -106 0
194 -199 0
198 -199 0
-194 -198 199 0
59 -200 0
12 -200 0
-59 -12 200 0
-199 185 0
-200 185 0
199 200 -185 0
187 -201 0
191 -201 0
195 -201 0
198 -201 0
-187 -191 -195 -198 201 0
200 -202 0
-200 202 0
184 -203 0
201 -203 0
-184 -201 203 0
-203 204 0
-185 204 0
203 185 -204 0
13 60 -207 0
-13 60 207 0
13 -60 207 0
-13 -60 -207 0
207 204 -107 0
-207 204 107 0
207 -204 107 0
-207 -204 -107 0
204 -208 0
207 -208 0
-204 -207 208 0
60 -209 0
13 -209 0
-60 -13 209 0
-208 206 0
-209 206 0
208 209 -206 0
14 61 -211 0
-14 61 211 0
14 -61 211 0
-14 -61 -211 0
211 206 -108 0
-211 206 108 0
211 -206 108 0
-211 -206 -108 0
206 -212 0
211 -212 0
-206 -211 212 0
61 -213 0
14 -213 0
-61 -14 213 0
-212 210 0
-213 210 0
212 213 -210 0
15 62 -215 0
-15 62 215 0
15 -62 215 0
-15 -62 -215 0
215 210 -109 0
-215 210 109 0
215 -210 109 0
-215 -210 -109 0
210 -216 0
215 -216 0
-210 -215 216 0
62 -217 0
15 -217 0
-62 -15 217 0
-216 214 0
-217 214 0
216 217 -214 0
16 63 -218 0
-16 63 218 0
16 -63 218 0
-16 -63 -218 0
218 214 -110 0
-218 214 110 0
218 -214 110 0
-218 -214 -110 0
214 -219 0
218 -219 0
-214 -218 219 0
63 -220 0
16 -220 0
-63 -16 220 0
-219 205 0
-220 205 0
219 220 -205 0
207 -221 0
211 -221 0
215 -221 0
218 -221 0
-207 -211 -215 -218 221 0
220 -222 0
-220 222 0
204 -223 0
221 -223 0
-204 -221 223 0
-223 224 0
-205 224 0
223 205 -224 0
17 64 -227 0
-17 64 227 0
17 -64 227 0
-17 -64 -227 0
227 224 -111 0
-227 224 111 0
227 -224 111 0
-227 -224 -111 0
224 -228 0
227 -228 0
-224 -227 228 0
64 -229 0
17 -229 0
-64 -17 229 0
-228 226 0
-229 226 0
228 229 -226 0
18 65 -231 0
-18 65 231 0
18 -65 231 0
-18 -65 -231 0
231 226 -112 0
-231 226 112 0
231 -226 112 0
-231 -226 -112 0
226 -232 0
231 -232 0
-226 -231 232 0
65 -233 0
18 -233 0
-65 -18 233 0
-232 230 0
-233 230 0
232 233 -230 0
19 66 -235 0
-19 66 235 0
19 -66 235 0
-19 -66 -235 0
235 230 -113 0
-235 230 113 0
235 -230 113 0
-235 -230 -113 0
230 -236 0
235 -236 0
-230 -235 236 0
66 -237 0
19 -237 0
-66 -19 237 0
-236 234 0
-237 234 0
236 237 -234 0
20 67 -238 0
-20 67 238 0
20 -67 238 0
-20 -67 -238 0
238 234 -114 0
-238 234 114 0
238 -234 114 0
-238 -234 -114 0
234 -239 0
238 -239 0
-234 -238 239 0
67 -240 0
20 -240 0
-67 -20 240 0
-239 225 0
-240 225 0
239 240 -225 0
227 -241 0
231 -241 0
235 -241 0
238 -241 0
-227 -231 -235 -238 241 0
240 -242 0
-240 242 0
224 -243 0
241 -243 0
-224 -241 243 0
-243 244 0
-225 244 0
243 225 -244 0
21 68 -247 0
-21 68 247 0
21 -68 247 0
-21 -68 -247 0
247 244 -115 0
-247 244 115 0
247 -244 115 0
-247 -244 -115 0
244 -248 0
247 -248 0
-244 -247 248 0
68 -249 0
21 -249 0
-68 -21 249 0
-248 246 0
-249 246 0
248 249 -246 0
22 69 -251 0
-22 69 251 0
22 -69 251 0
-22 -69 -251 0
251 246 -116 0
-251 246 116 0
251 -246 116 0
-251 -246 -116 0
246 -252 0
251 -252 0
-246 -251 252 0
69 -253 0
22 -253 0
-69 -22 253 0
-252 250 0
-253 250 0
252 253 -250 0
23 70 -255 0
-23 70 255 0
23 -70 255 0
-23 -70 -255 0
255 250 -117 0
-255 250 117 0
255 -250 117 0
-255 -250 -117 0
250 -256 0
255 -256 0
-250 -255 256 0
70 -257 0
23 -257 0
-70 -23 257 0
-256 254 0
-257 254 0
256 257 -254 0
24 71 -258 0
-24 71 258 0
24 -71 258 0
-24 -71 -258 0
258 254 -118 0
-258 254 118 0
258 -254 118 0
-258 -254 -118 0
254 -259 0
258 -259 0
-254 -258 259 0
71 -260 0
24 -260 0
-71 -24 260 0
-259 245 0
-260 245 0
259 260 -245 0
247 -261 0
251 -261 0
255 -261 0
258 -261 0
-247 -251 -255 -258 261 0
260 -262 0
-260 262 0
244 -263 0
261 -263 0
-244 -261 263 0
-263 264 0
-245 264 0
263 245 -264 0
25 72 -267 0
-25 72 267 0
25 -72 267 0
-25 -72 -267 0
267 264 -119 0
-267 264 119 0
267 -264 119 0
-267 -264 -119 0
264 -268 0
267 -268 0
-264 -267 268 0
72 -269 0
25 -269 0
-72 -25 269 0
-268 266 0
-269 266 0
268 269 -266 0
26 73 -271 0
-26 73 271 0
26 -73 271 0
-26 -73 -271 0
271 266 -120 0
-271 266 120 0
271 -266 120 0
-271 -266 -120 0
266 -272 0
271 -272 0
-266 -271 272 0
73 -273 0
26 -273 0
-73 -26 273 0
-272 270 0
-273 270 0
272 273 -270 0
27 74 -275 0
-27 74 275 0
27 -74 275 0
-27 -74 -275 0
275 270 -121 0
-275 270 121 0
275 -270 121 0
-275 -270 -121 0
270 -276 0
275 -276 0
-270 -275 276 0
74 -277 0
27 -277 0
-74 -27 277 0
-276 274 0
-277 274 0
276 277 -274 0
28 75 -278 0
-28 75 278 0
28 -75 278 0
-28 -75 -278 0
278 274 -122 0
-278 274 122 0
278 -274 122 0
-278 -274 -122 0
274 -279 0
278 -279 0
-274 -278 279 0
75 -280 0
28 -280 0
-75 -28 280 0
-279 265 0
-280 265 0
279 280 -265 0
267 -281 0
271 -281 0
275 -281 0
278 -281 0
-267 -271 -275 -278 281 0
280 -282 0
-280 282 0
264 -283 0
281 -283 0
-264 -281 283 0
-283 284 0
-265 284 0
283 265 -284 0
29 76 -287 0
-29 76 287 0
29 -76 287 0
-29 -76 -287 0
287 284 -123 0
-287 284 123 0
287 -284 123 0
-287 -284 -123 0
284 -288 0
287 -288 0
-284 -287 288 0
76 -289 0
29 -289 0
-76 -29 289 0
-288 286 0
-289 286 0
288 289 -286 0
30 77 -291 0
-30 77 291 0
30 -77 291 0
-30 -77 -291 0
291 286 -124 0
-291 286 124 0
291 -286 124 0
-291 -286 -124 0
286 -292 0
291 -292 0
-286 -291 292 0
77 -293 0
30 -293 0
-77 -30 293 0
-292 290 0
-293 290 0
292 293 -290 0
31 78 -295 0
-31 78 295 0
31 -78 295 0
-31 -78 -295 0
295 290 -125 0
-295 290 125 0
295 -290 125 0
-295 -290 -125 0
290 -296 0
295 -296 0
-290 -295 296 0
78 -297 0
31 -297 0
-78 -31 297 0
-296 294 0
-297 294 0
296 297 -294 0
32 79 -298 0
-32 79 298 0
32 -79 298 0
-32 -79 -298 0
298 294 -126 0
-298 294 126 0
298 -294 126 0
-298 -294 -126 0
294 -299 0
298 -299 0
-294 -298 299 0
79 -300 0
32 -300 0
-79 -32 300 0
-299 285 0
-300 285 0
299 300 -285 0
287 -301 0
291 -301 0
295 -301 0
298 -301 0
-287 -291 -295 -298 301 0
300 -302 0
-300 302 0
284 -303 0
301 -303 0
-284 -301 303 0
-303 304 0
-285 304 0
303 285 -304 0
33 80 -307 0
-33 80 307 0
33 -80 307 0
-33 -80 -307 0
307 304 -127 0
-307 304 127 0
307 -304 127 0
-307 -304 -127 0
304 -308 0
307 -308 0
-304 -307 308 0
80 -309 0
33 -309 0
-80 -33 309 0
-308 306 0
-309 306 0
308 309 -306 0
34 81 -311 0
-34 81 311 0
34 -81 311 0
-34 -81 -311 0
311 306 -128 0
-311 306 128 0
311 -306 128 0
-311 -306 -128 0
306 -312 0
311 -312 0
-306 -311 312 0
81 -313 0
34 -313 0
-81 -34 313 0
-312 310 0
-313 310 0
312 313 -310 0
35 82 -315 0
-35 82 315 0
35 -82 315 0
-35 -82 -315 0
315 310 -129 0
-315 310 129 0
315 -310 129 0
-315 -310 -129 0
310 -316 0
315 -316 0
-310 -315 316 0
82 -317 0
35 -317 0
-82 -35 317 0
-316 314 0
-317 314 0
316 317 -314 0
36 83 -318 0
-36 83 318 0
36 -83 318 0
-36 -83 -318 0
318 314 -130 0
-318 314 130 0
318 -314 130 0
-318 -314 -130 0
314 -319 0
318 -319 0
-314 -318 319 0
83 -320 0
36 -320 0
-83 -36 320 0
-319 305 0
-320 305 0
319 320 -305 0
307 -321 0
311 -321 0
315 -321 0
318 -321 0
-307 -311 -315 -318 321 0
320 -322 0
-320 322 0
304 -323 0
321 -323 0
-304 -321 323 0
-323 324 0
-305 324 0
323 305 -324 0
37 84 -327 0
-37 84 327 0
37 -84 327 0
-37 -84 -327 0
327 324 -131 0
-327 324 131 0
327 -324 131 0
-327 -324 -131 0
324 -328 0
327 -328 0
-324 -327 328 0
84 -329 0
37 -329 0
-84 -37 329 0
-328 326 0
-329 326 0
328 329 -326 0
38 85 -331 0
-38 85 331 0
38 -85 331 0
-38 -85 -331 0
331 326 -132 0
-331 326 132 0
331 -326 132 0
-331 -326 -132 0
326 -332 0
331 -332 0
-326 -331 332 0
85 -333 0
38 -333 0
-85 -38 333 0
-332 330 0
-333 330 0
332 333 -330 0
39 86 -335 0
-39 86 335 0
39 -86 335 0
-39 -86 -335 0
335 330 -133 0
-335 330 133 0
335 -330 133 0
-335 -330 -133 0
330 -336 0
335 -336 0
-330 -335 336 0
86 -337 0
39 -337 0
-86 -39 337 0
-336 334 0
-337 334 0
336 337 -334 0
40 87 -338 0
-40 87 338 0
40 -87 338 0
-40 -87 -338 0
338 334 -134 0
-338 334 134 0
338 -334 134 0
-338 -334 -134 0
334 -339 0
338 -339 0
-334 -338 339 0
87 -340 0
40 -340 0
-87 -40 340 0
-339 325 0
-340 325 0
339 340 -325 0
327 -341 0
331 -341 0
335 -341 0
338 -341 0
-327 -331 -335 -338 341 0
340 -342 0
-340 342 0
324 -343 0
341 -343 0
-324 -341 343 0
-343 344 0
-325 344 0
343 325 -344 0
41 88 -347 0
-41 88 347 0
41 -88 347 0
-41 -88 -347 0
347 344 -135 0
-347 344 135 0
347 -344 135 0
-347 -344 -135 0
344 -348 0
347 -348 0
-344 -347 348 0
88 -349 0
41 -349 0
-88 -41 349 0
-348 346 0
-349 346 0
348 349 -346 0
42 89 -351 0
-42 89 351 0
42 -89 351 0
-42 -89 -351 0
351 346 -136 0
-351 346 136 0
351 -346 136 0
-351 -346 -136 0
346 -352 0
351 -352 0
-346 -351 352 0
89 -353 0
42 -353 0
-89 -42 353 0
-352 350 0
-353 350 0
352 353 -350 0
43 90 -355 0
-43 90 355 0
43 -90 355 0
-43 -90 -355 0
355 350 -137 0
-355 350 137 0
355 -350 137 0
-355 -350 -137 0
350 -356 0
355 -356 0
-350 -355 356 0
90 -357 0
43 -357 0
-90 -43 357 0
-356 354 0
-357 354 0
356 357 -354 0
44 91 -358 0
-44 91 358 0
44 -91 358 0
-44 -91 -358 0
358 354 -138 0
-358 354 138 0
358 -354 138 0
-358 -354 -138 0
354 -359 0
358 -359 0
-354 -358 359 0
91 -360 0
44 -360 0
-91 -44 360 0
-359 345 0
-360 345 0
359 360 -345 0
347 -361 0
351 -361 0
355 -361 0
358 -361 0
-347 -351 -355 -358 361 0
360 -362 0
-360 362 0
344 -363 0
361 -363 0
-344 -361 363 0
-363 364 0
-345 364 0
363 345 -364 0
45 92 -367 0
-45 92 367 0
45 -92 367 0
-45 -92 -367 0
367 364 -139 0
-367 364 139 0
367 -364 139 0
-367 -364 -139 0
364 -368 0
367 -368 0
-364 -367 368 0
92 -369 0
45 -369 0
-92 -45 369 0
-368 366 0
-369 366 0
368 369 -366 0
46 93 -371 0
-46 93 371 0
46 -93 371 0
-46 -93 -371 0
371 366 -140 0
-371 366 140 0
371 -366 140 0
-371 -366 -140 0
366 -372 0
371 -372 0
-366 -371 372 0
93 -373 0
46 -373 0
-93 -46 373 0
-372 370 0
-373 370 0
372 373 -370 0
47 94 -374 0
-47 94 374 0
47 -94 374 0
-47 -94 -374 0
374 370 -141 0
-374 370 141 0
374 -370 141 0
-374 -370 -141 0
370 -375 0
374 -375 0
-370 -374 375 0
94 -376 0
47 -376 0
-94 -47 376 0
-375 365 0
-376 365 0
375 376 -365 0
367 -377 0
371 -377 0
374 -377 0
-367 -371 -374 377 0
376 -378 0
-376 378 0
364 -379 0
377 -379 0
-364 -377 379 0
-379 380 0
-365 380 0
379 365 -380 0
380 -142 0
-380 142 0
